90 116888
5 42 67 35 54 85 33 20 18 46 24 62 73 39 32 65 90 26 45 22 87 72 29 81 4 47 89 68 10 70 8 1 14 66 83 28 3 36 60 56 58 21 13 6 19 37 78 51 15 12 64 43 17 63 57 7 80 55 30 69 82 2 38 44 53 77 16 49 31 34 25 74 61 40 59 48 84 75 71 11 79 41 76 52 86 50 88 9 23 27 
